4 
5  24 41 56 
6  11 26 41 56 
7  08 23 38 53 
8  08 23 38 53 
9  08 23 38 53 
10  08 23 38 53 
11  08 23 38 53 
12  08 23 38 53 
13  09 26 41 56 
14  11 26 41 56 
15  10 25 40 55 
16  10 25 40 55 
17  10 25 40 55 
18  10 25 40 55 
19  09 23 38 53 
20  10 25 40 55 
21  10 25 40 55 
22  10 25 40 55 
23  11 30 47 
0 
